--- Job demowoaz_LiST_4_29_2020.gms Start 06/01/20 14:39:39 30.1.0 re01a340 WEX-WEI x86 64bit/MS Windows
--- GAMS Parameters defined
    Input Z:\home\lordflaron\Documents\minimod\Optimization Work\demewoz_lives_saved\data_files\justin_data\demowoaz_LiST_4_29_2020.gms
    PageSize 0
    ScrDir Z:\home\lordflaron\Documents\minimod\Optimization Work\demewoz_lives_saved\data_files\justin_data\225g\
    SysDir C:\GAMS\win64\30.1\
    LogOption 3
    ErrMsg 1
    ErrorLog 99
    IDE 1
    LstTitleLeftAligned 1
GAMS 30.1.0   Copyright (C) 1987-2020 GAMS Development. All rights reserved
Licensee: Small MUD - 5 User License                     G190305:1227AO-WIN
          University of California, Davis, Agricultural and Resource DC9668
--- Starting compilation
--- demowoaz_LiST_4_29_2020.gms(40) 3 Mb
--- GDXin=Z:\home\lordflaron\Documents\minimod\Optimization Work\demewoz_lives_saved\data_files\justin_data\Cameroon_deathsaverted.gdx
--- demowoaz_LiST_4_29_2020.gms(47) 3 Mb
--- GDXin=Z:\home\lordflaron\Documents\minimod\Optimization Work\demewoz_lives_saved\data_files\justin_data\Cameroon_deathsavertedhigh.gdx
--- demowoaz_LiST_4_29_2020.gms(54) 3 Mb
--- GDXin=Z:\home\lordflaron\Documents\minimod\Optimization Work\demewoz_lives_saved\data_files\justin_data\Cameroon_deathsavertedcost.gdx
--- demowoaz_LiST_4_29_2020.gms(61) 3 Mb
--- GDXin=Z:\home\lordflaron\Documents\minimod\Optimization Work\demewoz_lives_saved\data_files\justin_data\Cameroon_folate.gdx
--- demowoaz_LiST_4_29_2020.gms(448) 3 Mb
--- Starting execution: elapsed 0:00:00.031
--- demowoaz_LiST_4_29_2020.gms(348) 4 Mb
--- Generating MINLP model nutrition
--- demowoaz_LiST_4_29_2020.gms(349) 8 Mb
---   4,107 rows  5,102 columns  16,443 non-zeroes
---   0 nl-code  0 nl-non-zeroes
---   1,650 discrete-columns
--- demowoaz_LiST_4_29_2020.gms(349) 6 Mb
--- Executing BONMIN: elapsed 0:00:00.119
COIN-OR Bonmin   30.1.0 re01a340 Released Jan 10, 2020 WEI x86 64bit/MS Window
COIN-OR Bonmin (Bonmin Library 1.8)
written by P. Bonami.
******************************************************************************
This program contains Ipopt, a library for large-scale nonlinear optimization.
 Ipopt is released as open source code under the Eclipse Public License (EPL).
         For more information visit http://projects.coin-or.org/Ipopt
******************************************************************************
This is Ipopt version 3.12, running with linear solver mumps.
Number of nonzeros in equality constraint Jacobian...:    13141
Number of nonzeros in inequality constraint Jacobian.:     1651
Number of nonzeros in Lagrangian Hessian.............:        0
MUMPS returned INFO(1) = -9 and requires more memory, reallocating.  Attempt 1
  Increasing icntl[13] from 1000 to 2000.
Total number of variables............................:     5101
                     variables with only lower bounds:        0
                variables with lower and upper bounds:     1650
                     variables with only upper bounds:        0
Total number of equality constraints.................:     4075
Total number of inequality constraints...............:       31
        inequality constraints with only lower bounds:        1
   inequality constraints with lower and upper bounds:        0
        inequality constraints with only upper bounds:       30
iter    objective    inf_pr   inf_du lg(mu)  ||d||  lg(rg) alpha_du alpha_pr  ls
   0  0.0000000e+00 3.18e+04 1.00e+00   0.0 0.00e+00    -  0.00e+00 0.00e+00   0
MUMPS returned INFO(1) = -9 and requires more memory, reallocating.  Attempt 1
  Increasing icntl[13] from 2000 to 4000.
   2 -3.1325445e+06 3.18e+04 1.45e+00  -0.2 1.17e+10    -  2.53e-07 8.99e-07f  1
   7 -7.8630568e+06 3.18e+04 5.54e+00  -0.2 1.20e+10    -  2.19e-06 2.35e-06f  1
  15 -9.2848523e+06 3.18e+04 9.46e+02  -0.2 4.92e+08    -  4.10e-04 8.36e-05f  1
  23 -1.5435880e+06 2.02e+04 1.31e+06   1.8 3.20e+05    -  1.11e-02 9.41e-04h  1
  32  2.5133695e+06 1.51e+04 1.00e+06   1.8 3.12e+06    -  7.38e-02 3.48e-04h  1
  40  5.1099423e+06 1.20e+04 8.14e+05   1.8 5.57e+05    -  1.06e-02 2.02e-02h  1
  48  9.6299782e+06 8.18e+03 6.32e+05   1.7 8.91e+06    -  3.18e-02 1.05e-01h  1
  56  1.9434693e+07 3.14e+02 2.13e+04   0.4 4.04e+04    -  2.38e-01 1.16e-02h  1
  64  1.9806108e+07 4.11e-08 2.51e+01  -6.5 4.10e-02    -  1.00e+00 1.95e-03h 10
iter    objective    inf_pr   inf_du lg(mu)  ||d||  lg(rg) alpha_du alpha_pr  ls
Number of Iterations....: 65
                                   (scaled)                 (unscaled)
Objective...............:   1.9806108431568693e+07    1.9806108431568693e+07
Dual infeasibility......:   8.0465915616939025e-10    8.0465915616939025e-10
Constraint violation....:   1.2115818348590324e-09    1.2115818348590324e-09
Complementarity.........:   2.8655655482993536e-07    2.8655655482993536e-07
Overall NLP error.......:   1.2115818348590324e-09    2.8655655482993536e-07
Number of objective function evaluations             = 97
Number of objective gradient evaluations             = 66
Number of equality constraint evaluations            = 97
Number of inequality constraint evaluations          = 97
Number of equality constraint Jacobian evaluations   = 66
Number of inequality constraint Jacobian evaluations = 66
Number of Lagrangian Hessian evaluations             = 65
Total CPU secs in IPOPT (w/o function evaluations)   =      5.006
Total CPU secs in NLP function evaluations           =      0.153
EXIT: Optimal Solution Found.
NLP0012I 
              Num      Status      Obj             It       time                 Location
NLP0014I             1         OPT 19806108       65 5.159
NLP0012I 
              Num      Status      Obj             It       time                 Location
NLP0014I             1         OPT 20263171       13 1.027
NLP0012I 
              Num      Status      Obj             It       time                 Location
NLP0014I             1         OPT 20263171       13 1.277
Cbc0012I Integer solution of 20263171 found by DiveMIPFractional after 0 iterations and 0 nodes (4.29 seconds)
Cbc0011I Exiting as integer gap of 457062.58 less than 0 or 10%
Cbc0001I Search completed - best objective 20263171.00810101, took 0 iterations and 0 nodes (4.30 seconds)
Cbc0035I Maximum depth 0, 0 variables fixed on reduced cost
Bonmin finished. Found feasible solution. Objective function value = 2.02632e+07.
Resolve with fixed discrete variables to get dual values.
Error: Ipopt exited with error Not enough degrees of freedom
Problems solving fixed problem. Dual variables for NLP subproblem not available.
Best solution:    2.026317e+07   (0 nodes, 9.454 seconds)
Best possible:    1.980611e+07   (only reliable for convex models)
Absolute gap:     4.570626e+05   (absolute tolerance optca: 0)
Relative gap:     2.255632e-02   (relative tolerance optcr: 0.1)
--- Restarting execution
--- demowoaz_LiST_4_29_2020.gms(349) 3 Mb
--- Reading solution for model nutrition
***
*** Solver did not provide marginals for model nutrition
***
--- Executing after solve: elapsed 0:00:11.282
--- demowoaz_LiST_4_29_2020.gms(448) 4 Mb
--- Putfile tablput20_4bk Z:\home\lordflaron\Documents\minimod\Optimization Work\demewoz_lives_saved\data_files\justin_data\table1.txt
*** Status: Normal completion
--- Job demowoaz_LiST_4_29_2020.gms Stop 06/01/20 14:39:50 elapsed 0:00:11.288

